p cnf 1081 2429
1 0
2 0
3 0
4 0
5 0
6 0
7 0
8 0
9 0
10 0
11 0
12 0
13 0
14 0
15 0
16 0
17 0
18 0
19 0
20 0
21 0
22 0
23 0
24 0
25 0
26 0
27 0
28 0
29 0
30 0
31 0
32 0
33 0
34 0
35 0
36 0
37 0
38 0
39 0
40 0
41 0
42 0
43 0
44 0
45 0
46 0
47 0
48 0
49 0
50 0
-51 0
-52 0
-53 0
-54 0
-55 0
-56 0
-57 0
-58 0
-59 0
-60 0
-61 0
-62 0
-63 0
-64 0
-65 0
-66 0
-67 0
-68 0
-69 0
-70 0
-71 0
-72 0
-73 0
-74 0
-75 0
-76 0
-77 0
-78 0
-79 0
-80 0
-81 0
-82 0
-83 0
-84 0
-85 0
-86 0
-87 0
-88 0
-89 0
-90 0
-91 0
-92 0
-93 0
-94 0
-95 0
-96 0
-97 0
-98 0
-99 0
-100 0
1 -101 0
-1 101 0
2 -102 0
-2 102 0
3 -103 0
-3 103 0
4 -104 0
-4 104 0
5 -105 0
-5 105 0
6 -106 0
-6 106 0
7 -107 0
-7 107 0
8 -108 0
-8 108 0
9 -109 0
-9 109 0
10 -110 0
-10 110 0
11 -111 0
-11 111 0
12 -112 0
-12 112 0
13 -113 0
-13 113 0
14 -114 0
-14 114 0
15 -115 0
-15 115 0
16 -116 0
-16 116 0
17 -117 0
-17 117 0
18 -118 0
-18 118 0
19 -119 0
-19 119 0
20 -120 0
-20 120 0
21 -121 0
-21 121 0
22 -122 0
-22 122 0
23 -123 0
-23 123 0
24 -124 0
-24 124 0
25 -125 0
-25 125 0
26 -126 0
-26 126 0
27 -127 0
-27 127 0
28 -128 0
-28 128 0
29 -129 0
-29 129 0
30 -130 0
-30 130 0
31 -131 0
-31 131 0
32 -132 0
-32 132 0
33 -133 0
-33 133 0
34 -134 0
-34 134 0
35 -135 0
-35 135 0
36 -136 0
-36 136 0
37 -137 0
-37 137 0
38 -138 0
-38 138 0
39 -139 0
-39 139 0
40 -140 0
-40 140 0
41 -141 0
-41 141 0
42 -142 0
-42 142 0
43 -143 0
-43 143 0
44 -144 0
-44 144 0
45 -145 0
-45 145 0
46 -146 0
-46 146 0
47 -147 0
-47 147 0
48 -148 0
-48 148 0
49 -149 0
-49 149 0
50 -150 0
-50 150 0
151 152 0
153 152 0
-151 -153 -152 0
-51 152 -154 0
51 -152 -154 0
154 -152 -51 0
51 152 154 0
-154 0
155 156 0
157 156 0
-155 -157 -156 0
-151 156 -158 0
151 -156 -158 0
158 -156 -151 0
151 156 158 0
-158 0
155 -159 0
-155 159 0
160 161 0
162 161 0
-160 -162 -161 0
-52 161 -163 0
52 -161 -163 0
163 -161 -52 0
52 161 163 0
-163 0
164 165 0
166 165 0
-164 -166 -165 0
-160 165 -167 0
160 -165 -167 0
167 -165 -160 0
160 165 167 0
-167 0
162 168 0
166 168 0
169 168 0
-169 -162 -166 -168 0
-164 168 -170 0
164 -168 -170 0
170 -168 -164 0
164 168 170 0
-170 0
171 172 0
173 172 0
-171 -173 -172 0
-53 172 -174 0
53 -172 -174 0
174 -172 -53 0
53 172 174 0
-174 0
175 176 0
177 176 0
-175 -177 -176 0
-171 176 -178 0
171 -176 -178 0
178 -176 -171 0
171 176 178 0
-178 0
179 180 0
181 180 0
-179 -181 -180 0
-175 180 -182 0
175 -180 -182 0
182 -180 -175 0
175 180 182 0
-182 0
177 183 0
181 183 0
184 183 0
-177 -181 -184 -183 0
-179 183 -185 0
179 -183 -185 0
185 -183 -179 0
179 183 185 0
-185 0
186 187 0
188 187 0
-186 -188 -187 0
-54 187 -189 0
54 -187 -189 0
189 -187 -54 0
54 187 189 0
-189 0
190 191 0
192 191 0
-190 -192 -191 0
-186 191 -193 0
186 -191 -193 0
193 -191 -186 0
186 191 193 0
-193 0
194 195 0
196 195 0
-194 -196 -195 0
-190 195 -197 0
190 -195 -197 0
197 -195 -190 0
190 195 197 0
-197 0
196 198 0
199 198 0
-196 -199 -198 0
-194 198 -200 0
194 -198 -200 0
200 -198 -194 0
194 198 200 0
-200 0
201 202 0
203 202 0
-201 -203 -202 0
-55 202 -204 0
55 -202 -204 0
204 -202 -55 0
55 202 204 0
-204 0
205 206 0
207 206 0
-205 -207 -206 0
-201 206 -208 0
201 -206 -208 0
208 -206 -201 0
201 206 208 0
-208 0
209 210 0
211 210 0
-209 -211 -210 0
-205 210 -212 0
205 -210 -212 0
212 -210 -205 0
205 210 212 0
-212 0
213 214 0
215 214 0
-213 -215 -214 0
-209 214 -216 0
209 -214 -216 0
216 -214 -209 0
209 214 216 0
-216 0
217 218 0
219 218 0
-217 -219 -218 0
-213 218 -220 0
213 -218 -220 0
220 -218 -213 0
213 218 220 0
-220 0
221 222 0
223 222 0
-221 -223 -222 0
-217 222 -224 0
217 -222 -224 0
224 -222 -217 0
217 222 224 0
-224 0
225 226 0
227 226 0
-225 -227 -226 0
-221 226 -228 0
221 -226 -228 0
228 -226 -221 0
221 226 228 0
-228 0
219 229 0
223 229 0
227 229 0
230 229 0
-231 0
-225 229 -232 0
225 -229 -232 0
232 -229 -225 0
225 229 232 0
-232 0
233 234 0
235 234 0
-233 -235 -234 0
-56 234 -236 0
56 -234 -236 0
236 -234 -56 0
56 234 236 0
-236 0
237 238 0
239 238 0
-237 -239 -238 0
-233 238 -240 0
233 -238 -240 0
240 -238 -233 0
233 238 240 0
-240 0
241 242 0
243 242 0
-241 -243 -242 0
-237 242 -244 0
237 -242 -244 0
244 -242 -237 0
237 242 244 0
-244 0
245 246 0
247 246 0
-245 -247 -246 0
-241 246 -248 0
241 -246 -248 0
248 -246 -241 0
241 246 248 0
-248 0
249 250 0
251 250 0
-249 -251 -250 0
-245 250 -252 0
245 -250 -252 0
252 -250 -245 0
245 250 252 0
-252 0
243 253 0
247 253 0
251 253 0
254 253 0
-255 0
-249 253 -256 0
249 -253 -256 0
256 -253 -249 0
249 253 256 0
-256 0
257 258 0
259 258 0
-257 -259 -258 0
-57 258 -260 0
57 -258 -260 0
260 -258 -57 0
57 258 260 0
-260 0
261 262 0
263 262 0
-261 -263 -262 0
-257 262 -264 0
257 -262 -264 0
264 -262 -257 0
257 262 264 0
-264 0
265 266 0
267 266 0
-265 -267 -266 0
-261 266 -268 0
261 -266 -268 0
268 -266 -261 0
261 266 268 0
-268 0
269 270 0
271 270 0
-269 -271 -270 0
-265 270 -272 0
265 -270 -272 0
272 -270 -265 0
265 270 272 0
-272 0
273 274 0
275 274 0
-273 -275 -274 0
-269 274 -276 0
269 -274 -276 0
276 -274 -269 0
269 274 276 0
-276 0
277 278 0
279 278 0
-277 -279 -278 0
-273 278 -280 0
273 -278 -280 0
280 -278 -273 0
273 278 280 0
-280 0
271 281 0
275 281 0
279 281 0
282 281 0
-283 0
-277 281 -284 0
277 -281 -284 0
284 -281 -277 0
277 281 284 0
-284 0
285 286 0
287 286 0
-285 -287 -286 0
-58 286 -288 0
58 -286 -288 0
288 -286 -58 0
58 286 288 0
-288 0
285 -289 0
-285 289 0
290 291 0
292 291 0
-290 -292 -291 0
-59 291 -293 0
59 -291 -293 0
293 -291 -59 0
59 291 293 0
-293 0
294 295 0
296 295 0
-294 -296 -295 0
-290 295 -297 0
290 -295 -297 0
297 -295 -290 0
290 295 297 0
-297 0
298 299 0
300 299 0
-298 -300 -299 0
-294 299 -301 0
294 -299 -301 0
301 -299 -294 0
294 299 301 0
-301 0
302 303 0
304 303 0
-302 -304 -303 0
-298 303 -305 0
298 -303 -305 0
305 -303 -298 0
298 303 305 0
-305 0
306 307 0
308 307 0
-306 -308 -307 0
-302 307 -309 0
302 -307 -309 0
309 -307 -302 0
302 307 309 0
-309 0
310 311 0
312 311 0
-310 -312 -311 0
-306 311 -313 0
306 -311 -313 0
313 -311 -306 0
306 311 313 0
-313 0
304 314 0
308 314 0
312 314 0
315 314 0
-316 0
-310 314 -317 0
310 -314 -317 0
317 -314 -310 0
310 314 317 0
-317 0
318 319 0
320 319 0
-318 -320 -319 0
-60 319 -321 0
60 -319 -321 0
321 -319 -60 0
60 319 321 0
-321 0
322 323 0
324 323 0
-322 -324 -323 0
-318 323 -325 0
318 -323 -325 0
325 -323 -318 0
318 323 325 0
-325 0
326 327 0
328 327 0
-326 -328 -327 0
-322 327 -329 0
322 -327 -329 0
329 -327 -322 0
322 327 329 0
-329 0
326 -330 0
-326 330 0
61 -331 0
-61 331 0
332 333 0
334 333 0
-332 -334 -333 0
-62 333 -335 0
62 -333 -335 0
335 -333 -62 0
62 333 335 0
-335 0
336 337 0
338 337 0
-336 -338 -337 0
-332 337 -339 0
332 -337 -339 0
339 -337 -332 0
332 337 339 0
-339 0
340 341 0
342 341 0
-340 -342 -341 0
-336 341 -343 0
336 -341 -343 0
343 -341 -336 0
336 341 343 0
-343 0
344 345 0
346 345 0
-344 -346 -345 0
-340 345 -347 0
340 -345 -347 0
347 -345 -340 0
340 345 347 0
-347 0
348 349 0
350 349 0
-348 -350 -349 0
-344 349 -351 0
344 -349 -351 0
351 -349 -344 0
344 349 351 0
-351 0
342 352 0
346 352 0
350 352 0
353 352 0
-354 0
-348 352 -355 0
348 -352 -355 0
355 -352 -348 0
348 352 355 0
-355 0
356 357 0
358 357 0
-356 -358 -357 0
-63 357 -359 0
63 -357 -359 0
359 -357 -63 0
63 357 359 0
-359 0
360 361 0
362 361 0
-360 -362 -361 0
-356 361 -363 0
356 -361 -363 0
363 -361 -356 0
356 361 363 0
-363 0
364 365 0
366 365 0
-364 -366 -365 0
-360 365 -367 0
360 -365 -367 0
367 -365 -360 0
360 365 367 0
-367 0
368 369 0
370 369 0
-368 -370 -369 0
-364 369 -371 0
364 -369 -371 0
371 -369 -364 0
364 369 371 0
-371 0
372 373 0
374 373 0
-372 -374 -373 0
-368 373 -375 0
368 -373 -375 0
375 -373 -368 0
368 373 375 0
-375 0
366 376 0
370 376 0
374 376 0
377 376 0
-378 0
-372 376 -379 0
372 -376 -379 0
379 -376 -372 0
372 376 379 0
-379 0
380 381 0
382 381 0
-380 -382 -381 0
-64 381 -383 0
64 -381 -383 0
383 -381 -64 0
64 381 383 0
-383 0
384 385 0
386 385 0
-384 -386 -385 0
-380 385 -387 0
380 -385 -387 0
387 -385 -380 0
380 385 387 0
-387 0
388 389 0
390 389 0
-388 -390 -389 0
-384 389 -391 0
384 -389 -391 0
391 -389 -384 0
384 389 391 0
-391 0
392 393 0
394 393 0
-392 -394 -393 0
-388 393 -395 0
388 -393 -395 0
395 -393 -388 0
388 393 395 0
-395 0
394 396 0
397 396 0
-394 -397 -396 0
-392 396 -398 0
392 -396 -398 0
398 -396 -392 0
392 396 398 0
-398 0
399 400 0
401 400 0
-399 -401 -400 0
-65 400 -402 0
65 -400 -402 0
402 -400 -65 0
65 400 402 0
-402 0
403 404 0
405 404 0
-403 -405 -404 0
-399 404 -406 0
399 -404 -406 0
406 -404 -399 0
399 404 406 0
-406 0
407 408 0
409 408 0
-407 -409 -408 0
-403 408 -410 0
403 -408 -410 0
410 -408 -403 0
403 408 410 0
-410 0
411 412 0
413 412 0
-411 -413 -412 0
-407 412 -414 0
407 -412 -414 0
414 -412 -407 0
407 412 414 0
-414 0
405 415 0
409 415 0
413 415 0
416 415 0
-417 0
-411 415 -418 0
411 -415 -418 0
418 -415 -411 0
411 415 418 0
-418 0
419 420 0
421 420 0
-419 -421 -420 0
-66 420 -422 0
66 -420 -422 0
422 -420 -66 0
66 420 422 0
-422 0
423 424 0
425 424 0
-423 -425 -424 0
-419 424 -426 0
419 -424 -426 0
426 -424 -419 0
419 424 426 0
-426 0
427 428 0
429 428 0
-427 -429 -428 0
-423 428 -430 0
423 -428 -430 0
430 -428 -423 0
423 428 430 0
-430 0
431 432 0
433 432 0
-431 -433 -432 0
-427 432 -434 0
427 -432 -434 0
434 -432 -427 0
427 432 434 0
-434 0
435 436 0
437 436 0
-435 -437 -436 0
-431 436 -438 0
431 -436 -438 0
438 -436 -431 0
431 436 438 0
-438 0
439 440 0
441 440 0
-439 -441 -440 0
-435 440 -442 0
435 -440 -442 0
442 -440 -435 0
435 440 442 0
-442 0
433 443 0
437 443 0
441 443 0
444 443 0
-445 0
-439 443 -446 0
439 -443 -446 0
446 -443 -439 0
439 443 446 0
-446 0
447 448 0
449 448 0
-447 -449 -448 0
-67 448 -450 0
67 -448 -450 0
450 -448 -67 0
67 448 450 0
-450 0
451 452 0
453 452 0
-451 -453 -452 0
-447 452 -454 0
447 -452 -454 0
454 -452 -447 0
447 452 454 0
-454 0
451 -455 0
-451 455 0
456 457 0
458 457 0
-456 -458 -457 0
-68 457 -459 0
68 -457 -459 0
459 -457 -68 0
68 457 459 0
-459 0
460 461 0
462 461 0
-460 -462 -461 0
-456 461 -463 0
456 -461 -463 0
463 -461 -456 0
456 461 463 0
-463 0
464 465 0
466 465 0
-464 -466 -465 0
-460 465 -467 0
460 -465 -467 0
467 -465 -460 0
460 465 467 0
-467 0
468 469 0
470 469 0
-468 -470 -469 0
-464 469 -471 0
464 -469 -471 0
471 -469 -464 0
464 469 471 0
-471 0
472 473 0
474 473 0
-472 -474 -473 0
-468 473 -475 0
468 -473 -475 0
475 -473 -468 0
468 473 475 0
-475 0
476 477 0
478 477 0
-476 -478 -477 0
-472 477 -479 0
472 -477 -479 0
479 -477 -472 0
472 477 479 0
-479 0
474 480 0
478 480 0
481 480 0
-474 -478 -481 -480 0
-476 480 -482 0
476 -480 -482 0
482 -480 -476 0
476 480 482 0
-482 0
483 484 0
485 484 0
-483 -485 -484 0
-69 484 -486 0
69 -484 -486 0
486 -484 -69 0
69 484 486 0
-486 0
487 488 0
489 488 0
-487 -489 -488 0
-483 488 -490 0
483 -488 -490 0
490 -488 -483 0
483 488 490 0
-490 0
491 492 0
493 492 0
-491 -493 -492 0
-487 492 -494 0
487 -492 -494 0
494 -492 -487 0
487 492 494 0
-494 0
495 496 0
497 496 0
-495 -497 -496 0
-491 496 -498 0
491 -496 -498 0
498 -496 -491 0
491 496 498 0
-498 0
499 500 0
501 500 0
-499 -501 -500 0
-495 500 -502 0
495 -500 -502 0
502 -500 -495 0
495 500 502 0
-502 0
497 503 0
501 503 0
504 503 0
-497 -501 -504 -503 0
-499 503 -505 0
499 -503 -505 0
505 -503 -499 0
499 503 505 0
-505 0
506 507 0
508 507 0
-506 -508 -507 0
-70 507 -509 0
70 -507 -509 0
509 -507 -70 0
70 507 509 0
-509 0
506 -510 0
-506 510 0
511 512 0
513 512 0
-511 -513 -512 0
-71 512 -514 0
71 -512 -514 0
514 -512 -71 0
71 512 514 0
-514 0
515 516 0
517 516 0
-515 -517 -516 0
-511 516 -518 0
511 -516 -518 0
518 -516 -511 0
511 516 518 0
-518 0
519 520 0
521 520 0
-519 -521 -520 0
-515 520 -522 0
515 -520 -522 0
522 -520 -515 0
515 520 522 0
-522 0
523 524 0
525 524 0
-523 -525 -524 0
-519 524 -526 0
519 -524 -526 0
526 -524 -519 0
519 524 526 0
-526 0
525 527 0
528 527 0
-525 -528 -527 0
-523 527 -529 0
523 -527 -529 0
529 -527 -523 0
523 527 529 0
-529 0
530 531 0
532 531 0
-530 -532 -531 0
-72 531 -533 0
72 -531 -533 0
533 -531 -72 0
72 531 533 0
-533 0
532 534 0
535 534 0
-532 -535 -534 0
-530 534 -536 0
530 -534 -536 0
536 -534 -530 0
530 534 536 0
-536 0
537 538 0
539 538 0
-537 -539 -538 0
-73 538 -540 0
73 -538 -540 0
540 -538 -73 0
73 538 540 0
-540 0
541 542 0
543 542 0
-541 -543 -542 0
-537 542 -544 0
537 -542 -544 0
544 -542 -537 0
537 542 544 0
-544 0
545 546 0
547 546 0
-545 -547 -546 0
-541 546 -548 0
541 -546 -548 0
548 -546 -541 0
541 546 548 0
-548 0
547 549 0
550 549 0
-547 -550 -549 0
-545 549 -551 0
545 -549 -551 0
551 -549 -545 0
545 549 551 0
-551 0
552 553 0
554 553 0
-552 -554 -553 0
-74 553 -555 0
74 -553 -555 0
555 -553 -74 0
74 553 555 0
-555 0
556 557 0
558 557 0
-556 -558 -557 0
-552 557 -559 0
552 -557 -559 0
559 -557 -552 0
552 557 559 0
-559 0
560 561 0
562 561 0
-560 -562 -561 0
-556 561 -563 0
556 -561 -563 0
563 -561 -556 0
556 561 563 0
-563 0
564 565 0
566 565 0
-564 -566 -565 0
-560 565 -567 0
560 -565 -567 0
567 -565 -560 0
560 565 567 0
-567 0
568 569 0
570 569 0
-568 -570 -569 0
-564 569 -571 0
564 -569 -571 0
571 -569 -564 0
564 569 571 0
-571 0
572 573 0
574 573 0
-572 -574 -573 0
-568 573 -575 0
568 -573 -575 0
575 -573 -568 0
568 573 575 0
-575 0
570 576 0
574 576 0
577 576 0
-570 -577 -574 -576 0
-572 576 -578 0
572 -576 -578 0
578 -576 -572 0
572 576 578 0
-578 0
579 580 0
581 580 0
-579 -581 -580 0
-75 580 -582 0
75 -580 -582 0
582 -580 -75 0
75 580 582 0
-582 0
583 584 0
585 584 0
-583 -585 -584 0
-579 584 -586 0
579 -584 -586 0
586 -584 -579 0
579 584 586 0
-586 0
587 588 0
589 588 0
-587 -589 -588 0
-583 588 -590 0
583 -588 -590 0
590 -588 -583 0
583 588 590 0
-590 0
591 592 0
593 592 0
-591 -593 -592 0
-587 592 -594 0
587 -592 -594 0
594 -592 -587 0
587 592 594 0
-594 0
589 595 0
593 595 0
596 595 0
-593 -596 -589 -595 0
-591 595 -597 0
591 -595 -597 0
597 -595 -591 0
591 595 597 0
-597 0
598 599 0
600 599 0
-598 -600 -599 0
-76 599 -601 0
76 -599 -601 0
601 -599 -76 0
76 599 601 0
-601 0
602 603 0
604 603 0
-602 -604 -603 0
-598 603 -605 0
598 -603 -605 0
605 -603 -598 0
598 603 605 0
-605 0
606 607 0
608 607 0
-606 -608 -607 0
-602 607 -609 0
602 -607 -609 0
609 -607 -602 0
602 607 609 0
-609 0
610 611 0
612 611 0
-610 -612 -611 0
-606 611 -613 0
606 -611 -613 0
613 -611 -606 0
606 611 613 0
-613 0
614 615 0
616 615 0
-614 -616 -615 0
-610 615 -617 0
610 -615 -617 0
617 -615 -610 0
610 615 617 0
-617 0
616 618 0
619 618 0
-616 -619 -618 0
-614 618 -620 0
614 -618 -620 0
620 -618 -614 0
614 618 620 0
-620 0
621 622 0
623 622 0
-621 -623 -622 0
-77 622 -624 0
77 -622 -624 0
624 -622 -77 0
77 622 624 0
-624 0
625 626 0
627 626 0
-625 -627 -626 0
-621 626 -628 0
621 -626 -628 0
628 -626 -621 0
621 626 628 0
-628 0
625 -629 0
-625 629 0
630 631 0
632 631 0
-630 -632 -631 0
-78 631 -633 0
78 -631 -633 0
633 -631 -78 0
78 631 633 0
-633 0
634 635 0
636 635 0
-634 -636 -635 0
-630 635 -637 0
630 -635 -637 0
637 -635 -630 0
630 635 637 0
-637 0
638 639 0
640 639 0
-638 -640 -639 0
-634 639 -641 0
634 -639 -641 0
641 -639 -634 0
634 639 641 0
-641 0
642 643 0
644 643 0
-642 -644 -643 0
-638 643 -645 0
638 -643 -645 0
645 -643 -638 0
638 643 645 0
-645 0
646 647 0
648 647 0
-646 -648 -647 0
-642 647 -649 0
642 -647 -649 0
649 -647 -642 0
642 647 649 0
-649 0
648 650 0
651 650 0
-648 -651 -650 0
-646 650 -652 0
646 -650 -652 0
652 -650 -646 0
646 650 652 0
-652 0
653 654 0
655 654 0
-653 -655 -654 0
-79 654 -656 0
79 -654 -656 0
656 -654 -79 0
79 654 656 0
-656 0
657 658 0
659 658 0
-657 -659 -658 0
-653 658 -660 0
653 -658 -660 0
660 -658 -653 0
653 658 660 0
-660 0
661 662 0
663 662 0
-661 -663 -662 0
-657 662 -664 0
657 -662 -664 0
664 -662 -657 0
657 662 664 0
-664 0
665 666 0
667 666 0
-665 -667 -666 0
-661 666 -668 0
661 -666 -668 0
668 -666 -661 0
661 666 668 0
-668 0
663 669 0
667 669 0
670 669 0
-667 -663 -670 -669 0
-665 669 -671 0
665 -669 -671 0
671 -669 -665 0
665 669 671 0
-671 0
672 673 0
674 673 0
-672 -674 -673 0
-80 673 -675 0
80 -673 -675 0
675 -673 -80 0
80 673 675 0
-675 0
674 676 0
677 676 0
-677 -674 -676 0
-672 676 -678 0
672 -676 -678 0
678 -676 -672 0
672 676 678 0
-678 0
679 680 0
681 680 0
-679 -681 -680 0
-81 680 -682 0
81 -680 -682 0
682 -680 -81 0
81 680 682 0
-682 0
683 684 0
685 684 0
-683 -685 -684 0
-679 684 -686 0
679 -684 -686 0
686 -684 -679 0
679 684 686 0
-686 0
687 688 0
689 688 0
-687 -689 -688 0
-683 688 -690 0
683 -688 -690 0
690 -688 -683 0
683 688 690 0
-690 0
691 692 0
693 692 0
-691 -693 -692 0
-687 692 -694 0
687 -692 -694 0
694 -692 -687 0
687 692 694 0
-694 0
695 696 0
697 696 0
-695 -697 -696 0
-691 696 -698 0
691 -696 -698 0
698 -696 -691 0
691 696 698 0
-698 0
697 699 0
700 699 0
-697 -700 -699 0
-695 699 -701 0
695 -699 -701 0
701 -699 -695 0
695 699 701 0
-701 0
702 703 0
704 703 0
-702 -704 -703 0
-82 703 -705 0
82 -703 -705 0
705 -703 -82 0
82 703 705 0
-705 0
706 707 0
708 707 0
-706 -708 -707 0
-702 707 -709 0
702 -707 -709 0
709 -707 -702 0
702 707 709 0
-709 0
710 711 0
712 711 0
-710 -712 -711 0
-706 711 -713 0
706 -711 -713 0
713 -711 -706 0
706 711 713 0
-713 0
710 -714 0
-710 714 0
715 716 0
717 716 0
-715 -717 -716 0
-83 716 -718 0
83 -716 -718 0
718 -716 -83 0
83 716 718 0
-718 0
719 720 0
721 720 0
-719 -721 -720 0
-715 720 -722 0
715 -720 -722 0
722 -720 -715 0
715 720 722 0
-722 0
723 724 0
725 724 0
-723 -725 -724 0
-719 724 -726 0
719 -724 -726 0
726 -724 -719 0
719 724 726 0
-726 0
727 728 0
729 728 0
-727 -729 -728 0
-723 728 -730 0
723 -728 -730 0
730 -728 -723 0
723 728 730 0
-730 0
731 732 0
733 732 0
-731 -733 -732 0
-727 732 -734 0
727 -732 -734 0
734 -732 -727 0
727 732 734 0
-734 0
735 736 0
737 736 0
-735 -737 -736 0
-731 736 -738 0
731 -736 -738 0
738 -736 -731 0
731 736 738 0
-738 0
729 739 0
733 739 0
737 739 0
740 739 0
-741 0
-735 739 -742 0
735 -739 -742 0
742 -739 -735 0
735 739 742 0
-742 0
743 744 0
745 744 0
-743 -745 -744 0
-84 744 -746 0
84 -744 -746 0
746 -744 -84 0
84 744 746 0
-746 0
747 748 0
749 748 0
-747 -749 -748 0
-743 748 -750 0
743 -748 -750 0
750 -748 -743 0
743 748 750 0
-750 0
751 752 0
753 752 0
-751 -753 -752 0
-747 752 -754 0
747 -752 -754 0
754 -752 -747 0
747 752 754 0
-754 0
751 -755 0
-751 755 0
756 757 0
758 757 0
-756 -758 -757 0
-85 757 -759 0
85 -757 -759 0
759 -757 -85 0
85 757 759 0
-759 0
760 761 0
762 761 0
-760 -762 -761 0
-756 761 -763 0
756 -761 -763 0
763 -761 -756 0
756 761 763 0
-763 0
764 765 0
766 765 0
-764 -766 -765 0
-760 765 -767 0
760 -765 -767 0
767 -765 -760 0
760 765 767 0
-767 0
768 769 0
770 769 0
-768 -770 -769 0
-764 769 -771 0
764 -769 -771 0
771 -769 -764 0
764 769 771 0
-771 0
768 -772 0
-768 772 0
773 774 0
775 774 0
-773 -775 -774 0
-86 774 -776 0
86 -774 -776 0
776 -774 -86 0
86 774 776 0
-776 0
777 778 0
779 778 0
-777 -779 -778 0
-773 778 -780 0
773 -778 -780 0
780 -778 -773 0
773 778 780 0
-780 0
781 782 0
783 782 0
-781 -783 -782 0
-777 782 -784 0
777 -782 -784 0
784 -782 -777 0
777 782 784 0
-784 0
785 786 0
787 786 0
-785 -787 -786 0
-781 786 -788 0
781 -786 -788 0
788 -786 -781 0
781 786 788 0
-788 0
789 790 0
791 790 0
-789 -791 -790 0
-785 790 -792 0
785 -790 -792 0
792 -790 -785 0
785 790 792 0
-792 0
783 793 0
787 793 0
791 793 0
794 793 0
-795 0
-789 793 -796 0
789 -793 -796 0
796 -793 -789 0
789 793 796 0
-796 0
797 798 0
799 798 0
-797 -799 -798 0
-87 798 -800 0
87 -798 -800 0
800 -798 -87 0
87 798 800 0
-800 0
801 802 0
803 802 0
-801 -803 -802 0
-797 802 -804 0
797 -802 -804 0
804 -802 -797 0
797 802 804 0
-804 0
805 806 0
807 806 0
-805 -807 -806 0
-801 806 -808 0
801 -806 -808 0
808 -806 -801 0
801 806 808 0
-808 0
809 810 0
811 810 0
-809 -811 -810 0
-805 810 -812 0
805 -810 -812 0
812 -810 -805 0
805 810 812 0
-812 0
809 -813 0
-809 813 0
814 815 0
816 815 0
-814 -816 -815 0
-88 815 -817 0
88 -815 -817 0
817 -815 -88 0
88 815 817 0
-817 0
818 819 0
820 819 0
-818 -820 -819 0
-814 819 -821 0
814 -819 -821 0
821 -819 -814 0
814 819 821 0
-821 0
822 823 0
824 823 0
-822 -824 -823 0
-818 823 -825 0
818 -823 -825 0
825 -823 -818 0
818 823 825 0
-825 0
824 826 0
827 826 0
-824 -827 -826 0
-822 826 -828 0
822 -826 -828 0
828 -826 -822 0
822 826 828 0
-828 0
829 830 0
831 830 0
-829 -831 -830 0
-89 830 -832 0
89 -830 -832 0
832 -830 -89 0
89 830 832 0
-832 0
833 834 0
835 834 0
-833 -835 -834 0
-829 834 -836 0
829 -834 -836 0
836 -834 -829 0
829 834 836 0
-836 0
837 838 0
839 838 0
-837 -839 -838 0
-833 838 -840 0
833 -838 -840 0
840 -838 -833 0
833 838 840 0
-840 0
841 842 0
843 842 0
-841 -843 -842 0
-837 842 -844 0
837 -842 -844 0
844 -842 -837 0
837 842 844 0
-844 0
845 846 0
847 846 0
-845 -847 -846 0
-841 846 -848 0
841 -846 -848 0
848 -846 -841 0
841 846 848 0
-848 0
839 849 0
843 849 0
847 849 0
850 849 0
-851 0
-845 849 -852 0
845 -849 -852 0
852 -849 -845 0
845 849 852 0
-852 0
853 854 0
855 854 0
-853 -855 -854 0
-90 854 -856 0
90 -854 -856 0
856 -854 -90 0
90 854 856 0
-856 0
857 858 0
859 858 0
-857 -859 -858 0
-853 858 -860 0
853 -858 -860 0
860 -858 -853 0
853 858 860 0
-860 0
861 862 0
863 862 0
-861 -863 -862 0
-857 862 -864 0
857 -862 -864 0
864 -862 -857 0
857 862 864 0
-864 0
865 866 0
867 866 0
-865 -867 -866 0
-861 866 -868 0
861 -866 -868 0
868 -866 -861 0
861 866 868 0
-868 0
869 870 0
871 870 0
-869 -871 -870 0
-865 870 -872 0
865 -870 -872 0
872 -870 -865 0
865 870 872 0
-872 0
873 874 0
875 874 0
-873 -875 -874 0
-869 874 -876 0
869 -874 -876 0
876 -874 -869 0
869 874 876 0
-876 0
877 878 0
879 878 0
-877 -879 -878 0
-873 878 -880 0
873 -878 -880 0
880 -878 -873 0
873 878 880 0
-880 0
871 881 0
875 881 0
879 881 0
882 881 0
-883 0
-877 881 -884 0
877 -881 -884 0
884 -881 -877 0
877 881 884 0
-884 0
885 886 0
887 886 0
-885 -887 -886 0
-91 886 -888 0
91 -886 -888 0
888 -886 -91 0
91 886 888 0
-888 0
889 890 0
891 890 0
-889 -891 -890 0
-885 890 -892 0
885 -890 -892 0
892 -890 -885 0
885 890 892 0
-892 0
893 894 0
895 894 0
-893 -895 -894 0
-889 894 -896 0
889 -894 -896 0
896 -894 -889 0
889 894 896 0
-896 0
897 898 0
899 898 0
-897 -899 -898 0
-893 898 -900 0
893 -898 -900 0
900 -898 -893 0
893 898 900 0
-900 0
901 902 0
903 902 0
-901 -903 -902 0
-897 902 -904 0
897 -902 -904 0
904 -902 -897 0
897 902 904 0
-904 0
895 905 0
899 905 0
903 905 0
906 905 0
-907 0
-901 905 -908 0
901 -905 -908 0
908 -905 -901 0
901 905 908 0
-908 0
909 910 0
911 910 0
-909 -911 -910 0
-92 910 -912 0
92 -910 -912 0
912 -910 -92 0
92 910 912 0
-912 0
913 914 0
915 914 0
-913 -915 -914 0
-909 914 -916 0
909 -914 -916 0
916 -914 -909 0
909 914 916 0
-916 0
917 918 0
919 918 0
-917 -919 -918 0
-913 918 -920 0
913 -918 -920 0
920 -918 -913 0
913 918 920 0
-920 0
921 922 0
923 922 0
-921 -923 -922 0
-917 922 -924 0
917 -922 -924 0
924 -922 -917 0
917 922 924 0
-924 0
923 925 0
926 925 0
-923 -926 -925 0
-921 925 -927 0
921 -925 -927 0
927 -925 -921 0
921 925 927 0
-927 0
928 929 0
930 929 0
-928 -930 -929 0
-93 929 -931 0
93 -929 -931 0
931 -929 -93 0
93 929 931 0
-931 0
932 933 0
934 933 0
-932 -934 -933 0
-928 933 -935 0
928 -933 -935 0
935 -933 -928 0
928 933 935 0
-935 0
936 937 0
938 937 0
-936 -938 -937 0
-932 937 -939 0
932 -937 -939 0
939 -937 -932 0
932 937 939 0
-939 0
940 941 0
942 941 0
-940 -942 -941 0
-936 941 -943 0
936 -941 -943 0
943 -941 -936 0
936 941 943 0
-943 0
944 945 0
946 945 0
-944 -946 -945 0
-940 945 -947 0
940 -945 -947 0
947 -945 -940 0
940 945 947 0
-947 0
948 949 0
950 949 0
-948 -950 -949 0
-944 949 -951 0
944 -949 -951 0
951 -949 -944 0
944 949 951 0
-951 0
952 953 0
954 953 0
-952 -954 -953 0
-948 953 -955 0
948 -953 -955 0
955 -953 -948 0
948 953 955 0
-955 0
946 956 0
950 956 0
954 956 0
957 956 0
-958 0
-952 956 -959 0
952 -956 -959 0
959 -956 -952 0
952 956 959 0
-959 0
960 961 0
962 961 0
-960 -962 -961 0
-94 961 -963 0
94 -961 -963 0
963 -961 -94 0
94 961 963 0
-963 0
964 965 0
966 965 0
-964 -966 -965 0
-960 965 -967 0
960 -965 -967 0
967 -965 -960 0
960 965 967 0
-967 0
968 969 0
970 969 0
-968 -970 -969 0
-964 969 -971 0
964 -969 -971 0
971 -969 -964 0
964 969 971 0
-971 0
972 973 0
974 973 0
-972 -974 -973 0
-968 973 -975 0
968 -973 -975 0
975 -973 -968 0
968 973 975 0
-975 0
976 977 0
978 977 0
-976 -978 -977 0
-972 977 -979 0
972 -977 -979 0
979 -977 -972 0
972 977 979 0
-979 0
970 980 0
974 980 0
978 980 0
981 980 0
-982 0
-976 980 -983 0
976 -980 -983 0
983 -980 -976 0
976 980 983 0
-983 0
984 985 0
986 985 0
-984 -986 -985 0
-95 985 -987 0
95 -985 -987 0
987 -985 -95 0
95 985 987 0
-987 0
984 -988 0
-984 988 0
989 990 0
991 990 0
-989 -991 -990 0
-96 990 -992 0
96 -990 -992 0
992 -990 -96 0
96 990 992 0
-992 0
993 994 0
995 994 0
-993 -995 -994 0
-989 994 -996 0
989 -994 -996 0
996 -994 -989 0
989 994 996 0
-996 0
997 998 0
999 998 0
-997 -999 -998 0
-993 998 -1000 0
993 -998 -1000 0
1000 -998 -993 0
993 998 1000 0
-1000 0
1001 1002 0
1003 1002 0
-1001 -1003 -1002 0
-997 1002 -1004 0
997 -1002 -1004 0
1004 -1002 -997 0
997 1002 1004 0
-1004 0
1005 1006 0
1007 1006 0
-1005 -1007 -1006 0
-1001 1006 -1008 0
1001 -1006 -1008 0
1008 -1006 -1001 0
1001 1006 1008 0
-1008 0
1009 1010 0
1011 1010 0
-1009 -1011 -1010 0
-1005 1010 -1012 0
1005 -1010 -1012 0
1012 -1010 -1005 0
1005 1010 1012 0
-1012 0
1003 1013 0
1007 1013 0
1011 1013 0
1014 1013 0
-1015 0
-1009 1013 -1016 0
1009 -1013 -1016 0
1016 -1013 -1009 0
1009 1013 1016 0
-1016 0
1017 1018 0
1019 1018 0
-1017 -1019 -1018 0
-97 1018 -1020 0
97 -1018 -1020 0
1020 -1018 -97 0
97 1018 1020 0
-1020 0
1017 -1021 0
-1017 1021 0
1022 1023 0
1024 1023 0
-1022 -1024 -1023 0
-98 1023 -1025 0
98 -1023 -1025 0
1025 -1023 -98 0
98 1023 1025 0
-1025 0
1026 1027 0
1028 1027 0
-1026 -1028 -1027 0
-1022 1027 -1029 0
1022 -1027 -1029 0
1029 -1027 -1022 0
1022 1027 1029 0
-1029 0
1030 1031 0
1032 1031 0
-1030 -1032 -1031 0
-1026 1031 -1033 0
1026 -1031 -1033 0
1033 -1031 -1026 0
1026 1031 1033 0
-1033 0
1030 -1034 0
-1030 1034 0
1035 1036 0
1037 1036 0
-1035 -1037 -1036 0
-99 1036 -1038 0
99 -1036 -1038 0
1038 -1036 -99 0
99 1036 1038 0
-1038 0
1039 1040 0
1041 1040 0
-1039 -1041 -1040 0
-1035 1040 -1042 0
1035 -1040 -1042 0
1042 -1040 -1035 0
1035 1040 1042 0
-1042 0
1043 1044 0
1045 1044 0
-1043 -1045 -1044 0
-1039 1044 -1046 0
1039 -1044 -1046 0
1046 -1044 -1039 0
1039 1044 1046 0
-1046 0
1047 1048 0
1049 1048 0
-1047 -1049 -1048 0
-1043 1048 -1050 0
1043 -1048 -1050 0
1050 -1048 -1043 0
1043 1048 1050 0
-1050 0
1051 1052 0
1053 1052 0
-1051 -1053 -1052 0
-1047 1052 -1054 0
1047 -1052 -1054 0
1054 -1052 -1047 0
1047 1052 1054 0
-1054 0
1049 1055 0
1053 1055 0
1056 1055 0
-1053 -1049 -1056 -1055 0
-1051 1055 -1057 0
1051 -1055 -1057 0
1057 -1055 -1051 0
1051 1055 1057 0
-1057 0
1058 1059 0
1060 1059 0
-1058 -1060 -1059 0
-100 1059 -1061 0
100 -1059 -1061 0
1061 -1059 -100 0
100 1059 1061 0
-1061 0
1062 1063 0
1064 1063 0
-1062 -1064 -1063 0
-1058 1063 -1065 0
1058 -1063 -1065 0
1065 -1063 -1058 0
1058 1063 1065 0
-1065 0
1066 1067 0
1068 1067 0
-1066 -1068 -1067 0
-1062 1067 -1069 0
1062 -1067 -1069 0
1069 -1067 -1062 0
1062 1067 1069 0
-1069 0
1068 1070 0
1071 1070 0
-1068 -1071 -1070 0
-1066 1070 -1072 0
1066 -1070 -1072 0
1072 -1070 -1066 0
1066 1070 1072 0
-1072 0
101 -1073 0
102 -1073 0
103 -1073 0
104 -1073 0
105 -1073 0
106 -1073 0
107 -1073 0
108 -1073 0
109 -1073 0
110 -1073 0
111 -1073 0
112 -1073 0
113 -1073 0
114 -1073 0
115 -1073 0
116 -1073 0
117 -1073 0
118 -1073 0
119 -1073 0
120 -1073 0
121 -1073 0
122 -1073 0
123 -1073 0
124 -1073 0
125 -1073 0
126 -1073 0
127 -1073 0
128 -1073 0
129 -1073 0
130 -1073 0
131 -1073 0
132 -1073 0
133 -1073 0
134 -1073 0
135 -1073 0
136 -1073 0
137 -1073 0
138 -1073 0
139 -1073 0
140 -1073 0
141 -1073 0
142 -1073 0
143 -1073 0
144 -1073 0
145 -1073 0
146 -1073 0
147 -1073 0
148 -1073 0
149 -1073 0
150 -1073 0
153 -1073 0
-1073 -157 0
159 -1073 0
162 -1073 0
166 -1073 0
-1073 -169 0
-1073 -173 0
-1073 -177 0
181 -1073 0
184 -1073 0
-1073 -188 0
-1073 -192 0
-1073 -196 0
199 -1073 0
-1073 -203 0
-1073 -207 0
-1073 -211 0
-1073 -215 0
-1073 -219 0
-1073 -223 0
-1073 -227 0
230 -1073 0
-1073 -235 0
239 -1073 0
-1073 -243 0
-1073 -247 0
251 -1073 0
-1073 -254 0
-1073 -259 0
263 -1073 0
-1073 -267 0
-1073 -271 0
-1073 -275 0
279 -1073 0
282 -1073 0
287 -1073 0
-1073 -289 0
292 -1073 0
-1073 -296 0
300 -1073 0
-1073 -304 0
-1073 -308 0
312 -1073 0
-1073 -315 0
320 -1073 0
-1073 -324 0
328 -1073 0
-1073 -330 0
-1073 -331 0
-1073 -334 0
338 -1073 0
-1073 -342 0
346 -1073 0
350 -1073 0
-1073 -353 0
-1073 -358 0
362 -1073 0
-1073 -366 0
370 -1073 0
374 -1073 0
-1073 -377 0
-1073 -382 0
-1073 -386 0
-1073 -390 0
-1073 -394 0
397 -1073 0
401 -1073 0
-1073 -405 0
409 -1073 0
-1073 -413 0
-1073 -416 0
421 -1073 0
425 -1073 0
429 -1073 0
-1073 -433 0
-1073 -437 0
441 -1073 0
-1073 -444 0
449 -1073 0
-1073 -453 0
455 -1073 0
-1073 -458 0
-1073 -462 0
-1073 -466 0
-1073 -470 0
-1073 -474 0
478 -1073 0
481 -1073 0
-1073 -485 0
-1073 -489 0
-1073 -493 0
-1073 -497 0
501 -1073 0
504 -1073 0
508 -1073 0
-1073 -510 0
-1073 -513 0
-1073 -517 0
-1073 -521 0
-1073 -525 0
528 -1073 0
-1073 -532 0
535 -1073 0
539 -1073 0
-1073 -543 0
-1073 -547 0
550 -1073 0
554 -1073 0
558 -1073 0
-1073 -562 0
566 -1073 0
-1073 -570 0
574 -1073 0
-1073 -577 0
-1073 -581 0
585 -1073 0
589 -1073 0
-1073 -593 0
-1073 -596 0
600 -1073 0
-1073 -604 0
608 -1073 0
-1073 -612 0
-1073 -616 0
619 -1073 0
-1073 -623 0
627 -1073 0
-1073 -629 0
632 -1073 0
636 -1073 0
640 -1073 0
-1073 -644 0
-1073 -648 0
651 -1073 0
655 -1073 0
-1073 -659 0
663 -1073 0
-1073 -667 0
670 -1073 0
674 -1073 0
-1073 -677 0
-1073 -681 0
685 -1073 0
689 -1073 0
-1073 -693 0
-1073 -697 0
700 -1073 0
-1073 -704 0
708 -1073 0
-1073 -712 0
714 -1073 0
717 -1073 0
-1073 -721 0
725 -1073 0
-1073 -729 0
-1073 -733 0
737 -1073 0
-1073 -740 0
745 -1073 0
749 -1073 0
-1073 -753 0
755 -1073 0
758 -1073 0
762 -1073 0
766 -1073 0
-1073 -770 0
772 -1073 0
775 -1073 0
-1073 -779 0
783 -1073 0
-1073 -787 0
-1073 -791 0
794 -1073 0
-1073 -799 0
-1073 -803 0
-1073 -807 0
-1073 -811 0
813 -1073 0
816 -1073 0
-1073 -820 0
-1073 -824 0
827 -1073 0
831 -1073 0
-1073 -835 0
-1073 -839 0
-1073 -843 0
-1073 -847 0
850 -1073 0
-1073 -855 0
859 -1073 0
-1073 -863 0
-1073 -867 0
-1073 -871 0
875 -1073 0
879 -1073 0
882 -1073 0
-1073 -887 0
891 -1073 0
-1073 -895 0
-1073 -899 0
903 -1073 0
-1073 -906 0
911 -1073 0
915 -1073 0
-1073 -919 0
-1073 -923 0
926 -1073 0
930 -1073 0
-1073 -934 0
-1073 -938 0
-1073 -942 0
-1073 -946 0
-1073 -950 0
954 -1073 0
957 -1073 0
-1073 -962 0
966 -1073 0
-1073 -970 0
974 -1073 0
978 -1073 0
-1073 -981 0
986 -1073 0
-1073 -988 0
-1073 -991 0
995 -1073 0
999 -1073 0
1003 -1073 0
1007 -1073 0
1011 -1073 0
-1073 -1014 0
1019 -1073 0
-1073 -1021 0
1024 -1073 0
-1073 -1028 0
-1073 -1032 0
1034 -1073 0
-1073 -1037 0
-1073 -1041 0
-1073 -1045 0
1049 -1073 0
-1073 -1053 0
1056 -1073 0
1060 -1073 0
-1073 -1064 0
-1073 -1068 0
1071 -1073 0
1073 0
-1074 0
-1075 0
-1076 0
-1077 0
-1078 0
-1079 0
-1080 0
-1081 0
